VALUE 319
63 64
64 65
65 66
66 67
67 68
49 68
68 69
69 70
70 92
92 108
126 127
127 128
128 129
108 129
141 142
142 143
143 144
144 145
145 146
146 147
147 148
148 149
126 149
129 152
172 173
173 174
152 174
174 194
194 195
195 196
196 197
197 198
198 199
199 200
200 201
201 202
202 222
222 242
242 243
243 266
266 287
287 288
288 311

